c generated by sgen1
c Command: ./sgen1 -unsat -n 50 
p cnf 53 116
-2 -3 -4 0
-1 -3 -4 0
-1 -2 -4 0
-1 -2 -3 0
-6 -7 -8 0
-5 -7 -8 0
-5 -6 -8 0
-5 -6 -7 0
-10 -11 -12 0
-9 -11 -12 0
-9 -10 -12 0
-9 -10 -11 0
-14 -15 -16 0
-13 -15 -16 0
-13 -14 -16 0
-13 -14 -15 0
-18 -19 -20 0
-17 -19 -20 0
-17 -18 -20 0
-17 -18 -19 0
-22 -23 -24 0
-21 -23 -24 0
-21 -22 -24 0
-21 -22 -23 0
-26 -27 -28 0
-25 -27 -28 0
-25 -26 -28 0
-25 -26 -27 0
-30 -31 -32 0
-29 -31 -32 0
-29 -30 -32 0
-29 -30 -31 0
-34 -35 -36 0
-33 -35 -36 0
-33 -34 -36 0
-33 -34 -35 0
-38 -39 -40 0
-37 -39 -40 0
-37 -38 -40 0
-37 -38 -39 0
-42 -43 -44 0
-41 -43 -44 0
-41 -42 -44 0
-41 -42 -43 0
-46 -47 -48 0
-45 -47 -48 0
-45 -46 -48 0
-45 -46 -47 0
-49 -50 -51  0
-49 -50 -52  0
-49 -50 -53  0
-49 -51 -52  0
-49 -51 -53  0
-49 -52 -53  0
-50 -51 -52  0
-50 -51 -53  0
-50 -52 -53  0
-51 -52 -53  0
35 3 28 0
31 3 28 0
31 35 28 0
31 35 3 0
42 25 46 0
14 25 46 0
14 42 46 0
14 42 25 0
4 24 5 0
41 24 5 0
41 4 5 0
41 4 24 0
43 11 37 0
32 11 37 0
32 43 37 0
32 43 11 0
40 1 17 0
47 1 17 0
47 40 17 0
47 40 1 0
51 29 21 0
48 29 21 0
48 51 21 0
48 51 29 0
6 33 12 0
45 33 12 0
45 6 12 0
45 6 33 0
15 36 53 0
38 36 53 0
38 15 53 0
38 15 36 0
10 49 16 0
2 49 16 0
2 10 16 0
2 10 49 0
22 20 26 0
9 20 26 0
9 22 26 0
9 22 20 0
39 8 27 0
52 8 27 0
52 39 27 0
52 39 8 0
30 7 18 0
13 7 18 0
13 30 18 0
13 30 7 0
50 44 34  0
50 44 23  0
50 44 19  0
50 34 23  0
50 34 19  0
50 23 19  0
44 34 23  0
44 34 19  0
44 23 19  0
34 23 19  0
